
Log for 'IFAM' Clone_1 (V12.7.1.0) Mon Apr 16 17:10:28 2018


Log for 'IFAM' Clone_1 (V12.7.1.0) Tue Apr 17 10:18:14 2018


Log for 'IFAM' Clone_1 (V12.7.1.0) Tue Apr 17 10:19:51 2018


Log for 'IFAM' Clone_1 (V12.7.1.0) Tue Apr 17 11:59:10 2018


Log for 'IFAM' Clone_1 (V12.7.1.0) Tue Apr 17 13:17:18 2018


Log for 'IFAM' Clone_1 (V12.7.1.0) Tue Apr 17 13:19:33 2018


Log for 'IFAM' Clone_1 (V12.7.1.0) Tue Apr 17 13:24:30 2018


Log for 'IFAM' Clone_1 (V12.7.1.0) Tue Apr 17 13:29:43 2018


Log for 'IFAM' Clone_1 (V12.7.1.0) Tue Apr 17 13:30:37 2018


Log for 'IFAM' Clone_1 (V12.7.1.0) Tue Apr 17 14:23:23 2018


Log for 'IFAM' Clone_1 (V12.7.1.0) Tue Apr 17 14:24:50 2018


Log for 'IFAM' Clone_1 (V12.7.1.0) Tue Apr 17 15:35:07 2018


Log for 'IFAM' Clone_1 (V12.7.1.0) Tue Apr 17 15:58:01 2018


Log for 'IFAM' Clone_1 (V12.7.1.0) Tue Apr 17 16:25:52 2018

Tried aggregator 0 times.
No LP presolve or aggregator reductions.
Presolve time = 0.00 sec. (0.51 ticks)
Parallel mode: using up to 6 threads for barrier.
Number of nonzeros in lower triangle of A*A' = 5545
Using Nested Dissection ordering
Total time for automatic ordering = 0.01 sec. (5.67 ticks)
Barrier time = 0.02 sec. (6.71 ticks)

Dual simplex solved model.


Log for 'IFAM' Clone_1 (V12.7.1.0) Tue Apr 17 16:25:53 2018

Tried aggregator 0 times.
Reduced presolve eliminated 9 rows and 194 columns.
Reduced LP has 1981 rows, 2961 columns, and 7707 nonzeros.
Presolve time = 0.00 sec. (1.14 ticks)
Parallel mode: using up to 6 threads for barrier.
Number of nonzeros in lower triangle of A*A' = 6708
Using Approximate Minimum Degree ordering
Total time for automatic ordering = 0.01 sec. (5.28 ticks)
Barrier time = 0.01 sec. (7.02 ticks)

Dual simplex solved model.


Log for 'IFAM' Clone_1 (V12.7.1.0) Tue Apr 17 16:25:53 2018

Tried aggregator 0 times.
Reduced presolve eliminated 9 rows and 194 columns.
Reduced LP has 1981 rows, 2963 columns, and 7715 nonzeros.
Presolve time = 0.00 sec. (1.14 ticks)
Barrier time = 0.00 sec. (1.22 ticks)

Dual simplex solved model.


Log for 'IFAM' Clone_1 (V12.7.1.0) Tue Apr 17 16:25:53 2018

Presolve time = 0.00 sec. (0.82 ticks)

Dual simplex solved model.


Log for 'IFAM' Clone_1 (V12.7.1.0) Tue Apr 17 16:25:53 2018

Presolve time = 0.00 sec. (0.47 ticks)

Dual simplex solved model.


Log for 'IFAM' Clone_1 (V12.7.1.0) Tue Apr 17 16:28:20 2018

Tried aggregator 0 times.
No LP presolve or aggregator reductions.
Presolve time = 0.00 sec. (0.51 ticks)
Parallel mode: using up to 6 threads for barrier.
Number of nonzeros in lower triangle of A*A' = 5545
Using Approximate Minimum Degree ordering
Total time for automatic ordering = 0.01 sec. (3.98 ticks)
Barrier time = 0.01 sec. (5.03 ticks)

Dual simplex solved model.


Log for 'IFAM' Clone_1 (V12.7.1.0) Tue Apr 17 16:28:20 2018

Tried aggregator 0 times.
Reduced presolve eliminated 9 rows and 194 columns.
Reduced LP has 1981 rows, 2961 columns, and 7707 nonzeros.
Presolve time = 0.00 sec. (1.14 ticks)
Parallel mode: using up to 6 threads for barrier.
Number of nonzeros in lower triangle of A*A' = 6708
Using Approximate Minimum Degree ordering
Total time for automatic ordering = 0.01 sec. (3.28 ticks)
Barrier time = 0.01 sec. (5.01 ticks)

Dual simplex solved model.


Log for 'IFAM' Clone_1 (V12.7.1.0) Tue Apr 17 16:28:20 2018

Tried aggregator 0 times.
Reduced presolve eliminated 9 rows and 194 columns.
Reduced LP has 1981 rows, 2963 columns, and 7715 nonzeros.
Presolve time = 0.00 sec. (1.14 ticks)
Barrier time = 0.00 sec. (1.22 ticks)

Dual simplex solved model.


Log for 'IFAM' Clone_1 (V12.7.1.0) Tue Apr 17 16:28:20 2018

Presolve time = 0.00 sec. (0.47 ticks)

Dual simplex solved model.


Log for 'IFAM' Clone_1 (V12.7.1.0) Tue Apr 17 16:28:20 2018

Presolve time = 0.00 sec. (0.47 ticks)

Dual simplex solved model.


Log for 'IFAM' Clone_1 (V12.7.1.0) Tue Apr 17 16:29:20 2018

Tried aggregator 0 times.
No LP presolve or aggregator reductions.
Presolve time = 0.00 sec. (0.51 ticks)
Parallel mode: using up to 6 threads for barrier.
Number of nonzeros in lower triangle of A*A' = 5545
Using Approximate Minimum Degree ordering
Total time for automatic ordering = 0.01 sec. (3.53 ticks)
Barrier time = 0.01 sec. (4.58 ticks)

Dual simplex solved model.


Log for 'IFAM' Clone_1 (V12.7.1.0) Tue Apr 17 16:29:20 2018

Tried aggregator 0 times.
Reduced presolve eliminated 9 rows and 194 columns.
Reduced LP has 1981 rows, 2961 columns, and 7707 nonzeros.
Presolve time = 0.00 sec. (1.14 ticks)
Parallel mode: using up to 6 threads for barrier.
Number of nonzeros in lower triangle of A*A' = 6708
Using Approximate Minimum Degree ordering
Total time for automatic ordering = 0.01 sec. (5.28 ticks)
Barrier time = 0.01 sec. (7.02 ticks)

Dual simplex solved model.


Log for 'IFAM' Clone_1 (V12.7.1.0) Tue Apr 17 16:29:20 2018

Tried aggregator 0 times.
Reduced presolve eliminated 9 rows and 194 columns.
Reduced LP has 1981 rows, 2963 columns, and 7715 nonzeros.
Presolve time = 0.00 sec. (1.14 ticks)
Barrier time = 0.00 sec. (1.22 ticks)

Dual simplex solved model.


Log for 'IFAM' Clone_1 (V12.7.1.0) Tue Apr 17 16:29:20 2018

Presolve time = 0.00 sec. (0.47 ticks)

Dual simplex solved model.


Log for 'IFAM' Clone_1 (V12.7.1.0) Tue Apr 17 16:29:20 2018

Presolve time = 0.00 sec. (0.82 ticks)

Dual simplex solved model.


Log for 'IFAM' Clone_1 (V12.7.1.0) Tue Apr 17 16:43:01 2018


Log for 'IFAM' Clone_1 (V12.7.1.0) Tue Apr 17 16:43:20 2018


Log for 'IFAM' Clone_1 (V12.7.1.0) Tue Apr 17 16:45:02 2018

Tried aggregator 0 times.
No LP presolve or aggregator reductions.
Presolve time = 0.00 sec. (0.51 ticks)
Parallel mode: using up to 6 threads for barrier.
Number of nonzeros in lower triangle of A*A' = 5545
Using Nested Dissection ordering
Total time for automatic ordering = 0.02 sec. (4.52 ticks)
Barrier time = 0.02 sec. (5.57 ticks)

Dual simplex solved model.


Log for 'IFAM' Clone_1 (V12.7.1.0) Tue Apr 17 16:45:02 2018

Tried aggregator 0 times.
Reduced presolve eliminated 9 rows and 194 columns.
Reduced LP has 1981 rows, 2961 columns, and 7707 nonzeros.
Presolve time = 0.02 sec. (1.14 ticks)
Parallel mode: using up to 6 threads for barrier.
Number of nonzeros in lower triangle of A*A' = 6708
Total time for automatic ordering = 0.00 sec. (1.47 ticks)
Barrier time = 0.00 sec. (3.20 ticks)

Dual simplex solved model.


Log for 'IFAM' Clone_1 (V12.7.1.0) Tue Apr 17 16:45:02 2018

Tried aggregator 0 times.
Reduced presolve eliminated 9 rows and 194 columns.
Reduced LP has 1981 rows, 2963 columns, and 7715 nonzeros.
Presolve time = 0.00 sec. (1.14 ticks)
Barrier time = 0.00 sec. (1.22 ticks)

Dual simplex solved model.


Log for 'IFAM' Clone_1 (V12.7.1.0) Tue Apr 17 16:45:03 2018

Presolve time = 0.00 sec. (0.47 ticks)

Dual simplex solved model.


Log for 'IFAM' Clone_1 (V12.7.1.0) Tue Apr 17 16:45:03 2018

Presolve time = 0.00 sec. (0.82 ticks)

Dual simplex solved model.


Log for 'IFAM' Clone_1 (V12.7.1.0) Tue Apr 17 17:03:04 2018

Tried aggregator 0 times.
No LP presolve or aggregator reductions.
Presolve time = 0.00 sec. (0.51 ticks)
Parallel mode: using up to 6 threads for barrier.
Number of nonzeros in lower triangle of A*A' = 5545
Using Nested Dissection ordering
Total time for automatic ordering = 0.02 sec. (5.67 ticks)
Barrier time = 0.02 sec. (6.71 ticks)

Dual simplex solved model.


Log for 'IFAM' Clone_1 (V12.7.1.0) Tue Apr 17 17:03:04 2018

Tried aggregator 0 times.
Reduced presolve eliminated 9 rows and 194 columns.
Reduced LP has 1981 rows, 2961 columns, and 7707 nonzeros.
Presolve time = 0.00 sec. (1.14 ticks)
Parallel mode: using up to 6 threads for barrier.
Number of nonzeros in lower triangle of A*A' = 6708
Using Approximate Minimum Degree ordering
Total time for automatic ordering = 0.00 sec. (3.25 ticks)
Barrier time = 0.02 sec. (4.99 ticks)

Dual simplex solved model.


Log for 'IFAM' Clone_1 (V12.7.1.0) Tue Apr 17 17:03:04 2018

Tried aggregator 0 times.
Reduced presolve eliminated 9 rows and 194 columns.
Reduced LP has 1981 rows, 2963 columns, and 7715 nonzeros.
Presolve time = 0.02 sec. (1.14 ticks)
Barrier time = 0.00 sec. (1.22 ticks)

Dual simplex solved model.


Log for 'IFAM' Clone_1 (V12.7.1.0) Tue Apr 17 17:03:04 2018

Presolve time = 0.00 sec. (0.82 ticks)

Dual simplex solved model.


Log for 'IFAM' Clone_1 (V12.7.1.0) Tue Apr 17 17:03:04 2018

Presolve time = 0.02 sec. (0.82 ticks)

Dual simplex solved model.

